141
0 72 99 98 69 84 118 100 37 39 
138 135 126 20 48 51 124 31 137 104 
121 40 115 57 83 65 29 67 22 109 
54 122 42 47 3 38 88 45 6 132 
101 9 102 140 111 105 62 92 78 70 
82 85 89 36 130 63 15 113 4 30 
13 53 131 114 56 7 127 129 134 87 
43 1 8 46 64 103 5 128 10 68 
108 116 73 35 97 61 12 80 76 86 
55 125 19 17 136 34 16 32 79 96 
28 59 23 112 71 120 90 25 58 75 
110 123 133 77 50 107 93 44 106 27 
139 33 60 26 11 2 94 91 95 21 
14 117 81 119 52 18 24 49 74 66 
41 
